NAME : sample_65
COMMENT : Sample TSP instance with 65 cities
TYPE : TSP
DIMENSION : 65
EDGE_WEIGHT_TYPE : EUC_2D
NODE_COORD_SECTION
1 828 489
2 827 120
3 157 454
4 873 495
5 638 17
6 949 169
7 998 749
8 198 158
9 59 724
10 630 647
11 301 779
12 934 325
13 309 202
14 260 820
15 840 483
16 429 278
17 473 263
18 265 776
19 966 81
20 127 571
21 208 921
22 615 443
23 573 7
24 348 980
25 392 538
26 91 917
27 553 9
28 757 443
29 407 585
30 805 847
31 7 963
32 43 564
33 246 852
34 529 745
35 378 499
36 986 356
37 601 491
38 653 158
39 372 341
40 436 964
41 267 427
42 207 528
43 766 273
44 707 4
45 737 619
46 894 890
47 741 823
48 86 947
49 995 191
50 27 953
51 763 617
52 621 182
53 177 663
54 724 423
55 690 975
56 222 302
57 25 100
58 437 190
59 813 357
60 780 144
61 90 130
62 866 324
63 198 838
64 967 231
65 272 11
EOF
